c File: flat50_3_0.col
c
c SOURCE: Joseph Culberson (joe@cs.ualberta.ca)
c DESCRIPTION: Quasi-random coloring problem
c              generated with flatness = 0
c                             probability = 0.139
c                             known coloring = 3
c                             random seed = 1426
c              Creation Date:  Tue Jun  9 12:09:04 1998
c Maximum degree = 8 Minimum degree = 1
c p edge 50 115
c cnf created by edge2cnf
p cnf 150 545
-1 -2 0
-1 -3 0
-2 -3 0
1 2 3 0
-4 -5 0
-4 -6 0
-5 -6 0
4 5 6 0
-7 -8 0
-7 -9 0
-8 -9 0
7 8 9 0
-10 -11 0
-10 -12 0
-11 -12 0
10 11 12 0
-13 -14 0
-13 -15 0
-14 -15 0
13 14 15 0
-16 -17 0
-16 -18 0
-17 -18 0
16 17 18 0
-19 -20 0
-19 -21 0
-20 -21 0
19 20 21 0
-22 -23 0
-22 -24 0
-23 -24 0
22 23 24 0
-25 -26 0
-25 -27 0
-26 -27 0
25 26 27 0
-28 -29 0
-28 -30 0
-29 -30 0
28 29 30 0
-31 -32 0
-31 -33 0
-32 -33 0
31 32 33 0
-34 -35 0
-34 -36 0
-35 -36 0
34 35 36 0
-37 -38 0
-37 -39 0
-38 -39 0
37 38 39 0
-40 -41 0
-40 -42 0
-41 -42 0
40 41 42 0
-43 -44 0
-43 -45 0
-44 -45 0
43 44 45 0
-46 -47 0
-46 -48 0
-47 -48 0
46 47 48 0
-49 -50 0
-49 -51 0
-50 -51 0
49 50 51 0
-52 -53 0
-52 -54 0
-53 -54 0
52 53 54 0
-55 -56 0
-55 -57 0
-56 -57 0
55 56 57 0
-58 -59 0
-58 -60 0
-59 -60 0
58 59 60 0
-61 -62 0
-61 -63 0
-62 -63 0
61 62 63 0
-64 -65 0
-64 -66 0
-65 -66 0
64 65 66 0
-67 -68 0
-67 -69 0
-68 -69 0
67 68 69 0
-70 -71 0
-70 -72 0
-71 -72 0
70 71 72 0
-73 -74 0
-73 -75 0
-74 -75 0
73 74 75 0
-76 -77 0
-76 -78 0
-77 -78 0
76 77 78 0
-79 -80 0
-79 -81 0
-80 -81 0
79 80 81 0
-82 -83 0
-82 -84 0
-83 -84 0
82 83 84 0
-85 -86 0
-85 -87 0
-86 -87 0
85 86 87 0
-88 -89 0
-88 -90 0
-89 -90 0
88 89 90 0
-91 -92 0
-91 -93 0
-92 -93 0
91 92 93 0
-94 -95 0
-94 -96 0
-95 -96 0
94 95 96 0
-97 -98 0
-97 -99 0
-98 -99 0
97 98 99 0
-100 -101 0
-100 -102 0
-101 -102 0
100 101 102 0
-103 -104 0
-103 -105 0
-104 -105 0
103 104 105 0
-106 -107 0
-106 -108 0
-107 -108 0
106 107 108 0
-109 -110 0
-109 -111 0
-110 -111 0
109 110 111 0
-112 -113 0
-112 -114 0
-113 -114 0
112 113 114 0
-115 -116 0
-115 -117 0
-116 -117 0
115 116 117 0
-118 -119 0
-118 -120 0
-119 -120 0
118 119 120 0
-121 -122 0
-121 -123 0
-122 -123 0
121 122 123 0
-124 -125 0
-124 -126 0
-125 -126 0
124 125 126 0
-127 -128 0
-127 -129 0
-128 -129 0
127 128 129 0
-130 -131 0
-130 -132 0
-131 -132 0
130 131 132 0
-133 -134 0
-133 -135 0
-134 -135 0
133 134 135 0
-136 -137 0
-136 -138 0
-137 -138 0
136 137 138 0
-139 -140 0
-139 -141 0
-140 -141 0
139 140 141 0
-142 -143 0
-142 -144 0
-143 -144 0
142 143 144 0
-145 -146 0
-145 -147 0
-146 -147 0
145 146 147 0
-148 -149 0
-148 -150 0
-149 -150 0
148 149 150 0
-112 -1 0
-113 -2 0
-114 -3 0
-148 -1 0
-149 -2 0
-150 -3 0
-97 -4 0
-98 -5 0
-99 -6 0
-136 -4 0
-137 -5 0
-138 -6 0
-94 -7 0
-95 -8 0
-96 -9 0
-106 -7 0
-107 -8 0
-108 -9 0
-112 -7 0
-113 -8 0
-114 -9 0
-115 -7 0
-116 -8 0
-117 -9 0
-133 -7 0
-134 -8 0
-135 -9 0
-73 -10 0
-74 -11 0
-75 -12 0
-109 -10 0
-110 -11 0
-111 -12 0
-73 -13 0
-74 -14 0
-75 -15 0
-82 -13 0
-83 -14 0
-84 -15 0
-121 -13 0
-122 -14 0
-123 -15 0
-61 -16 0
-62 -17 0
-63 -18 0
-70 -16 0
-71 -17 0
-72 -18 0
-76 -16 0
-77 -17 0
-78 -18 0
-100 -16 0
-101 -17 0
-102 -18 0
-139 -16 0
-140 -17 0
-141 -18 0
-70 -19 0
-71 -20 0
-72 -21 0
-79 -19 0
-80 -20 0
-81 -21 0
-88 -19 0
-89 -20 0
-90 -21 0
-94 -19 0
-95 -20 0
-96 -21 0
-112 -19 0
-113 -20 0
-114 -21 0
-118 -19 0
-119 -20 0
-120 -21 0
-145 -19 0
-146 -20 0
-147 -21 0
-55 -22 0
-56 -23 0
-57 -24 0
-64 -22 0
-65 -23 0
-66 -24 0
-106 -22 0
-107 -23 0
-108 -24 0
-121 -22 0
-122 -23 0
-123 -24 0
-148 -22 0
-149 -23 0
-150 -24 0
-82 -25 0
-83 -26 0
-84 -27 0
-85 -25 0
-86 -26 0
-87 -27 0
-91 -25 0
-92 -26 0
-93 -27 0
-124 -25 0
-125 -26 0
-126 -27 0
-73 -28 0
-74 -29 0
-75 -30 0
-85 -28 0
-86 -29 0
-87 -30 0
-109 -28 0
-110 -29 0
-111 -30 0
-112 -28 0
-113 -29 0
-114 -30 0
-115 -28 0
-116 -29 0
-117 -30 0
-127 -28 0
-128 -29 0
-129 -30 0
-64 -31 0
-65 -32 0
-66 -33 0
-85 -31 0
-86 -32 0
-87 -33 0
-100 -31 0
-101 -32 0
-102 -33 0
-115 -31 0
-116 -32 0
-117 -33 0
-130 -31 0
-131 -32 0
-132 -33 0
-133 -31 0
-134 -32 0
-135 -33 0
-61 -34 0
-62 -35 0
-63 -36 0
-85 -34 0
-86 -35 0
-87 -36 0
-148 -34 0
-149 -35 0
-150 -36 0
-55 -37 0
-56 -38 0
-57 -39 0
-64 -37 0
-65 -38 0
-66 -39 0
-76 -37 0
-77 -38 0
-78 -39 0
-124 -37 0
-125 -38 0
-126 -39 0
-148 -37 0
-149 -38 0
-150 -39 0
-52 -40 0
-53 -41 0
-54 -42 0
-61 -40 0
-62 -41 0
-63 -42 0
-79 -40 0
-80 -41 0
-81 -42 0
-97 -40 0
-98 -41 0
-99 -42 0
-109 -40 0
-110 -41 0
-111 -42 0
-139 -40 0
-140 -41 0
-141 -42 0
-58 -43 0
-59 -44 0
-60 -45 0
-79 -43 0
-80 -44 0
-81 -45 0
-109 -43 0
-110 -44 0
-111 -45 0
-142 -43 0
-143 -44 0
-144 -45 0
-61 -46 0
-62 -47 0
-63 -48 0
-82 -46 0
-83 -47 0
-84 -48 0
-106 -46 0
-107 -47 0
-108 -48 0
-145 -46 0
-146 -47 0
-147 -48 0
-70 -49 0
-71 -50 0
-72 -51 0
-76 -49 0
-77 -50 0
-78 -51 0
-94 -49 0
-95 -50 0
-96 -51 0
-100 -49 0
-101 -50 0
-102 -51 0
-103 -49 0
-104 -50 0
-105 -51 0
-124 -49 0
-125 -50 0
-126 -51 0
-130 -49 0
-131 -50 0
-132 -51 0
-139 -49 0
-140 -50 0
-141 -51 0
-115 -52 0
-116 -53 0
-117 -54 0
-145 -52 0
-146 -53 0
-147 -54 0
-106 -55 0
-107 -56 0
-108 -57 0
-124 -55 0
-125 -56 0
-126 -57 0
-124 -58 0
-125 -59 0
-126 -60 0
-127 -58 0
-128 -59 0
-129 -60 0
-133 -58 0
-134 -59 0
-135 -60 0
-145 -58 0
-146 -59 0
-147 -60 0
-106 -61 0
-107 -62 0
-108 -63 0
-127 -61 0
-128 -62 0
-129 -63 0
-109 -64 0
-110 -65 0
-111 -66 0
-115 -64 0
-116 -65 0
-117 -66 0
-127 -64 0
-128 -65 0
-129 -66 0
-121 -67 0
-122 -68 0
-123 -69 0
-124 -67 0
-125 -68 0
-126 -69 0
-127 -67 0
-128 -68 0
-129 -69 0
-142 -67 0
-143 -68 0
-144 -69 0
-142 -70 0
-143 -71 0
-144 -72 0
-115 -73 0
-116 -74 0
-117 -75 0
-148 -73 0
-149 -74 0
-150 -75 0
-103 -76 0
-104 -77 0
-105 -78 0
-130 -76 0
-131 -77 0
-132 -78 0
-103 -79 0
-104 -80 0
-105 -81 0
-115 -82 0
-116 -83 0
-117 -84 0
-118 -85 0
-119 -86 0
-120 -87 0
-130 -85 0
-131 -86 0
-132 -87 0
-148 -85 0
-149 -86 0
-150 -87 0
-106 -91 0
-107 -92 0
-108 -93 0
-136 -91 0
-137 -92 0
-138 -93 0
-121 -94 0
-122 -95 0
-123 -96 0
-130 -94 0
-131 -95 0
-132 -96 0
-142 -94 0
-143 -95 0
-144 -96 0
-124 -97 0
-125 -98 0
-126 -99 0
-136 -97 0
-137 -98 0
-138 -99 0
-103 -100 0
-104 -101 0
-105 -102 0
-130 -100 0
-131 -101 0
-132 -102 0
-142 -100 0
-143 -101 0
-144 -102 0
-145 -100 0
-146 -101 0
-147 -102 0
